Solver command line: []

Read LP format model from file C:\Users\wlhlm\AppData\Local\Temp\tmpl8jltogn.pyomo.lp
Reading time = 2.36 seconds
objective: 976704 rows, 875999 columns, 2159286 nonzeros
Set parameter MIPGap to value 0.02
Gurobi Optimizer version 12.0.1 build v12.0.1rc0 (win64 - Windows 11.0 (26100.2))

CPU model: Intel(R) Core(TM) Ultra 7 258V, instruction set [SSE2|AVX|AVX2]
Thread count: 8 physical cores, 8 logical processors, using up to 8 threads

Non-default parameters:
MIPGap  0.02

Optimize a model with 976704 rows, 875999 columns and 2159286 nonzeros
Model fingerprint: 0xe36b48f9
Model has 8759 quadratic constraints
Variable types: 753360 continuous, 122639 integer (105120 binary)
Coefficient statistics:
  Matrix range     [6e-03, 2e+02]
  QMatrix range    [1e+00, 1e+00]
  Objective range  [1e-02, 5e+02]
  Bounds range     [1e+00, 3e+00]
  RHS range        [8e-05, 1e+04]
Presolve removed 774320 rows and 647322 columns
Presolve time: 0.55s
Presolved: 202384 rows, 228677 columns, 630097 nonzeros
Variable types: 154183 continuous, 74494 integer (65734 binary)
Performing another presolve...
Presolve removed 70080 rows and 70081 columns (presolve time = 6s)...
Presolve removed 70080 rows and 70081 columns
Presolve time: 6.44s
Deterministic concurrent LP optimizer: primal and dual simplex
Showing primal log only...


Root simplex log...

Iteration    Objective       Primal Inf.    Dual Inf.      Time
       0    1.2075533e+08   6.066839e+05   2.385048e+13      8s
   54211    1.1384066e+08   7.435241e+03   8.590601e+09     10s
Concurrent spin time: 0.00s

Solved with dual simplex

Root simplex log...

Iteration    Objective       Primal Inf.    Dual Inf.      Time
   73932    1.1176244e+08   0.000000e+00   0.000000e+00     11s

Root relaxation: objective 1.117624e+08, 73932 iterations, 3.65 seconds (4.75 work units)
Total elapsed time = 11.43s (DegenMoves)

    Nodes    |    Current Node    |     Objective Bounds      |     Work
 Expl Unexpl |  Obj  Depth IntInf | Incumbent    BestBd   Gap | It/Node Time

     0     0 1.1176e+08    0  272          - 1.1176e+08      -     -   13s
     0     0 1.1176e+08    0  275          - 1.1176e+08      -     -   16s
H    0     0                    1.118508e+08 1.1176e+08  0.08%     -   17s

Cutting planes:
  Gomory: 145
  Cover: 103
  Implied bound: 38
  MIR: 147
  Flow cover: 132
  RLT: 45
  Relax-and-lift: 147

Explored 1 nodes (80040 simplex iterations) in 17.49 seconds (22.81 work units)
Thread count was 8 (of 8 available processors)

Solution count 1: 1.11851e+08 

Optimal solution found (tolerance 2.00e-02)
Best objective 1.118508387629e+08, best bound 1.117632410636e+08, gap 0.0783%

